Route_0
50	50
75	75
75	75
75	75
75	75
75	75
75	75
75	75
75	75
75	75
75	75
75	75
160	131
215	136
233	100
311	206
280	314
242	228
106	154
78	103
50	50
Route_1
50	50
55	130
73	174
15	280
14	349
74	399
89	489
121	477
238	407
344	444
378	455
396	371
427	331
429	321
481	308
487	307
456	143
340	58
323	81
243	54
204	22
50	50
